sat
(:max-memory          18.61
 :memory              17.66
 :num-allocs          1697484462
 :rlimit-count        2459995
 :sls-constraints     3972
 :sls-ddfw-flips      1357640.00
 :sls-ddfw-reinits    16
 :sls-ddfw-restarts   238
 :sls-ddfw-shifts     759761.00
 :sls-euf-conflict    3972
 :solve-eqs-elim-vars 5
 :solve-eqs-steps     12
 :time                1.92
 :total-time          1.91)
